c FILE: I24.clq
c
c SOURCE: Generated by Breno Maurício de Freitas Viana
c         writed
c
c           Graph Stats
c number of vertices  : 30
c number of edges     : 63
p col 30 63
e 1 2
e 1 3
e 1 4
e 1 5
e 1 11
e 2 3
e 2 4
e 2 5
e 2 12
e 3 4
e 3 5
e 3 13
e 4 5
e 4 6
e 4 14
e 5 14
e 5 15
e 6 7
e 6 8
e 6 9
e 6 10
e 7 8
e 7 9
e 7 10
e 7 16
e 8 9
e 8 10
e 8 17
e 9 10
e 9 18
e 9 19
e 11 12
e 12 13
e 13 14
e 14 15
e 15 16
e 16 17
e 17 18
e 17 19
e 17 20
e 18 19
e 18 20
e 19 20
e 20 21
e 20 22
e 20 23
e 20 24
e 20 25
e 21 22
e 21 23
e 22 23
e 23 24
e 23 25
e 24 25
e 25 26
e 25 27
e 25 28
e 25 29
e 25 30
e 26 28
e 27 28
e 27 29
e 28 30